NAME : morphed22-2-30
COMMENT : Generated using the function morphInstances from the R-package netgen (Bossek,2015) - Number of clusters: 2 Alpha: 0.5
TYPE : TSP
DIMENSION : 22
EDGE_WEIGHT_TYPE : EUC_2D
NODE_COORD_SECTION
1 38.0330426868 4.0143623357
2 46.011221424 41.67273165
3 48.7301900711 17.0944603515
4 56.3896600914 17.5173892034
5 33.8297168821 50.552191691
6 28.1236002723 39.3888416063
7 70.0747509435 69.4171234758
8 31.2215045267 51.2964182333
9 98.0954261347 34.9955207975
10 26.8594054149 37.2343932636
11 20.2998886423 52.847478286
12 41.8815929535 58.9039658759
13 65.9320156417 20.8067771403
14 84.9148766754 36.8887938601
15 43.8478613165 6.310686336
16 89.15734816 24.6439159451
17 47.1040491456 2.5679086476
18 81.9830104142 15.9084773862
19 66.8225454916 32.0294102056
20 43.68238141 61.1195259798
21 28.7160738418 70.4736266119
22 54.3584195108 52.4876711917
EOF
